p cnf 44 53
1 2 3 4 5 6 7 8 9 10 0
-1 11 0
-2 11 0
-1 -2 12 0
-3 13 0
-4 13 0
-3 -4 14 0
-5 15 0
-6 15 0
-5 -6 16 0
-7 17 0
-8 17 0
-7 -8 18 0
-9 19 0
-10 19 0
-9 -10 20 0
-17 21 0
-19 21 0
-17 -19 22 0
-18 23 0
-20 23 0
-18 -20 24 0
-22 25 0
-23 25 0
-22 -23 26 0
-15 27 0
-21 27 0
-15 -21 28 0
-16 29 0
-25 29 0
-16 -25 30 0
-28 31 0
-29 31 0
-28 -29 32 0
-13 33 0
-27 33 0
-13 -27 34 0
-14 35 0
-31 35 0
-14 -31 36 0
-34 37 0
-35 37 0
-34 -35 38 0
-11 39 0
-33 39 0
-11 -33 40 0
-12 41 0
-37 41 0
-12 -37 42 0
-40 43 0
-41 43 0
-40 -41 44 0
-43 0
